c A SAT instance generated from a 3-CNF formula that had 36 clauses and 9 variables
p cnf 9 36
-7 -6 5 0
7 2 -6 0
-4 -5 -6 0
4 2 -3 0
-3 -1 -2 0
6 -2 -1 0
2 -5 6 0
-7 9 -8 0
7 -2 -9 0
6 -9 5 0
4 7 -5 0
5 -8 7 0
9 6 1 0
6 -4 7 0
-8 3 6 0
5 3 -2 0
1 -9 -3 0
1 6 -3 0
-3 1 5 0
7 5 4 0
8 5 6 0
-1 -8 3 0
5 -1 3 0
2 -5 -8 0
-7 1 -3 0
-4 9 1 0
4 8 6 0
-9 1 -4 0
5 3 -7 0
5 3 -9 0
-9 7 3 0
-5 -4 -9 0
-1 -2 -9 0
-2 -8 4 0
7 -6 8 0
-5 -9 -2 0
